param N := 4;
param M := 50;

param nu := 1.0;

param X : 1 2 3 4 :=
1 7.9 3.8 6.4 2.0
2 7.7 2.6 6.9 2.3
3 5.6 2.8 4.9 2.0
4 6.4 2.8 5.6 2.1
5 5.7 3.0 4.2 1.2
6 5.8 2.7 3.9 1.2
7 5.2 2.7 3.9 1.4
8 5.9 3.0 4.2 1.5
9 4.9 2.4 3.3 1.0
10 6.8 3.0 5.5 2.1
11 6.6 3.0 4.4 1.4
12 5.6 3.0 4.5 1.5
13 6.4 2.7 5.3 1.9
14 7.7 3.8 6.7 2.2
15 5.0 2.0 3.5 1.0
16 6.5 3.0 5.2 2.0
17 5.8 2.7 4.1 1.0
18 5.7 2.6 3.5 1.0
19 5.7 2.5 5.0 2.0
20 6.7 3.0 5.2 2.3
21 6.6 2.9 4.6 1.3
22 5.5 2.5 4.0 1.3
23 5.7 2.8 4.1 1.3
24 6.7 3.3 5.7 2.5
25 6.7 3.3 5.7 2.1
26 5.8 2.8 5.1 2.4
27 5.6 3.0 4.1 1.3
28 6.2 2.8 4.8 1.8
29 4.9 2.5 4.5 1.7
30 6.7 3.1 4.7 1.5
31 6.0 3.0 4.8 1.8
32 5.5 2.6 4.4 1.2
33 6.3 2.5 4.9 1.5
34 7.3 2.9 6.3 1.8
35 6.0 2.7 5.1 1.6
36 6.2 3.4 5.4 2.3
37 7.1 3.0 5.9 2.1
38 7.7 2.8 6.7 2.0
39 5.4 3.0 4.5 1.5
40 6.4 3.2 5.3 2.3
41 6.7 3.1 4.4 1.4
42 6.5 3.0 5.5 1.8
43 6.4 2.9 4.3 1.3
44 7.2 3.0 5.8 1.6
45 5.6 2.7 4.2 1.3
46 6.9 3.1 5.1 2.3
47 6.3 3.3 4.7 1.6
48 6.4 3.1 5.5 1.8
49 6.3 2.7 4.9 1.8
50 6.9 3.1 5.4 2.1
;

param y :=
1 1.0
2 1.0
3 1.0
4 1.0
5 -1.0
6 -1.0
7 -1.0
8 -1.0
9 -1.0
10 1.0
11 -1.0
12 -1.0
13 1.0
14 1.0
15 -1.0
16 1.0
17 -1.0
18 -1.0
19 1.0
20 1.0
21 -1.0
22 -1.0
23 -1.0
24 1.0
25 1.0
26 1.0
27 -1.0
28 1.0
29 1.0
30 -1.0
31 1.0
32 -1.0
33 -1.0
34 1.0
35 -1.0
36 1.0
37 1.0
38 1.0
39 -1.0
40 1.0
41 -1.0
42 1.0
43 -1.0
44 1.0
45 -1.0
46 1.0
47 -1.0
48 1.0
49 1.0
50 1.0
;

